lib/ltl-model-counter/case-studies/minepump/minepump-k3.cnf
p cnf 370 538
370 0
-370 43 0
-370 369 0
-43 38 0
-43 42 0
-38 35 0
-38 37 0
-35 13 0
-35 34 0
-13 -1 12 0
-12 4 0
-12 11 0
-4 -2 3 0
-4 2 -3 0
-11 7 0
-11 10 0
-7 -5 6 0
-7 5 -6 0
-10 -8 9 0
-10 8 -9 0
-34 23 0
-34 33 0
-23 -14 22 0
-22 16 0
-22 21 0
-16 -15 3 0
-16 15 -3 0
-21 18 0
-21 20 0
-18 -17 6 0
-18 17 -6 0
-20 -19 9 0
-20 19 -9 0
-33 -24 32 0
-32 26 0
-32 31 0
-26 -25 3 0
-26 25 -3 0
-31 28 0
-31 30 0
-28 -27 6 0
-28 27 -6 0
-30 -29 9 0
-30 29 -9 0
-37 1 36 0
-36 14 24 0
-42 40 0
-42 41 0
-40 -39 -1 0
-14 24 39 0
14 -24 39 0
-14 -24 39 0
-41 -24 -14 0
-369 226 0
-369 368 0
-226 144 0
-226 225 0
-144 46 0
-144 143 0
-46 -29 45 0
-45 -27 44 0
-44 -17 -5 0
-143 54 0
-143 142 0
-54 -19 53 0
-53 -17 52 0
-52 -5 51 0
-51 47 50 0
-47 1 0
-47 -5 0
-50 48 49 0
-48 14 0
-48 -17 0
-49 24 0
-49 -27 0
-142 69 0
-142 141 0
-69 -8 68 0
-68 -5 67 0
-67 61 66 0
-61 1 0
-61 60 0
-60 -5 59 0
-59 55 58 0
-55 1 0
-55 -5 0
-58 56 57 0
-56 14 0
-56 -17 0
-57 24 0
-57 -27 0
-66 63 65 0
-63 14 0
-63 62 0
-62 -17 -5 0
-65 24 0
-65 64 0
-64 -27 -17 0
-141 85 140 0
-85 1 0
-85 84 0
-84 -8 83 0
-83 -5 82 0
-82 76 81 0
-76 1 0
-76 75 0
-75 -5 74 0
-74 70 73 0
-70 1 0
-70 -5 0
-73 71 72 0
-71 14 0
-71 -17 0
-72 24 0
-72 -27 0
-81 78 80 0
-78 14 0
-78 77 0
-77 -17 -5 0
-80 24 0
-80 79 0
-79 -27 -17 0
-140 110 139 0
-110 14 0
-110 109 0
-109 93 0
-109 108 0
-93 -19 92 0
-92 -17 91 0
-91 -5 90 0
-90 86 89 0
-86 1 0
-86 -5 0
-89 87 88 0
-87 14 0
-87 -17 0
-88 24 0
-88 -27 0
-108 -8 107 0
-107 -5 106 0
-106 100 105 0
-100 1 0
-100 99 0
-99 -5 98 0
-98 94 97 0
-94 1 0
-94 -5 0
-97 95 96 0
-95 14 0
-95 -17 0
-96 24 0
-96 -27 0
-105 102 104 0
-102 14 0
-102 101 0
-101 -17 -5 0
-104 24 0
-104 103 0
-103 -27 -17 0
-139 24 0
-139 138 0
-138 113 0
-138 137 0
-113 -29 112 0
-112 -27 111 0
-111 -17 -5 0
-137 121 0
-137 136 0
-121 -19 120 0
-120 -17 119 0
-119 -5 118 0
-118 114 117 0
-114 1 0
-114 -5 0
-117 115 116 0
-115 14 0
-115 -17 0
-116 24 0
-116 -27 0
-136 -8 135 0
-135 -5 134 0
-134 128 133 0
-128 1 0
-128 127 0
-127 -5 126 0
-126 122 125 0
-122 1 0
-122 -5 0
-125 123 124 0
-123 14 0
-123 -17 0
-124 24 0
-124 -27 0
-133 130 132 0
-130 14 0
-130 129 0
-129 -17 -5 0
-132 24 0
-132 131 0
-131 -27 -17 0
-225 184 224 0
-184 145 183 0
-145 25 0
-145 19 0
-183 146 182 0
-146 15 0
-146 8 0
-182 152 181 0
-152 2 0
-152 151 0
-151 147 150 0
-147 1 0
-147 8 0
-150 148 149 0
-148 14 0
-148 19 0
-149 24 0
-149 29 0
-181 159 180 0
-159 1 0
-159 158 0
-158 2 0
-158 157 0
-157 153 156 0
-153 1 0
-153 8 0
-156 154 155 0
-154 14 0
-154 19 0
-155 24 0
-155 29 0
-180 168 179 0
-168 14 0
-168 167 0
-167 160 166 0
-160 15 0
-160 8 0
-166 2 0
-166 165 0
-165 161 164 0
-161 1 0
-161 8 0
-164 162 163 0
-162 14 0
-162 19 0
-163 24 0
-163 29 0
-179 24 0
-179 178 0
-178 169 177 0
-169 25 0
-169 19 0
-177 170 176 0
-170 15 0
-170 8 0
-176 2 0
-176 175 0
-175 171 174 0
-171 1 0
-171 8 0
-174 172 173 0
-172 14 0
-172 19 0
-173 24 0
-173 29 0
-224 185 223 0
-185 27 0
-185 -19 0
-223 186 222 0
-186 17 0
-186 -8 0
-222 192 221 0
-192 5 0
-192 191 0
-191 187 190 0
-187 1 0
-187 -8 0
-190 188 189 0
-188 14 0
-188 -19 0
-189 24 0
-189 -29 0
-221 199 220 0
-199 1 0
-199 198 0
-198 5 0
-198 197 0
-197 193 196 0
-193 1 0
-193 -8 0
-196 194 195 0
-194 14 0
-194 -19 0
-195 24 0
-195 -29 0
-220 208 219 0
-208 14 0
-208 207 0
-207 200 206 0
-200 17 0
-200 -8 0
-206 5 0
-206 205 0
-205 201 204 0
-201 1 0
-201 -8 0
-204 202 203 0
-202 14 0
-202 -19 0
-203 24 0
-203 -29 0
-219 24 0
-219 218 0
-218 209 217 0
-209 27 0
-209 -19 0
-217 210 216 0
-210 17 0
-210 -8 0
-216 5 0
-216 215 0
-215 211 214 0
-211 1 0
-211 -8 0
-214 212 213 0
-212 14 0
-212 -19 0
-213 24 0
-213 -29 0
-368 327 0
-368 367 0
-327 229 0
-327 326 0
-229 -29 228 0
-228 -27 227 0
-227 -17 -5 0
-326 237 0
-326 325 0
-237 -19 236 0
-236 -17 235 0
-235 -5 234 0
-234 230 233 0
-230 1 0
-230 -5 0
-233 231 232 0
-231 14 0
-231 -17 0
-232 24 0
-232 -27 0
-325 252 0
-325 324 0
-252 -8 251 0
-251 -5 250 0
-250 244 249 0
-244 1 0
-244 243 0
-243 -5 242 0
-242 238 241 0
-238 1 0
-238 -5 0
-241 239 240 0
-239 14 0
-239 -17 0
-240 24 0
-240 -27 0
-249 246 248 0
-246 14 0
-246 245 0
-245 -17 -5 0
-248 24 0
-248 247 0
-247 -27 -17 0
-324 268 323 0
-268 1 0
-268 267 0
-267 -8 266 0
-266 -5 265 0
-265 259 264 0
-259 1 0
-259 258 0
-258 -5 257 0
-257 253 256 0
-253 1 0
-253 -5 0
-256 254 255 0
-254 14 0
-254 -17 0
-255 24 0
-255 -27 0
-264 261 263 0
-261 14 0
-261 260 0
-260 -17 -5 0
-263 24 0
-263 262 0
-262 -27 -17 0
-323 293 322 0
-293 14 0
-293 292 0
-292 276 0
-292 291 0
-276 -19 275 0
-275 -17 274 0
-274 -5 273 0
-273 269 272 0
-269 1 0
-269 -5 0
-272 270 271 0
-270 14 0
-270 -17 0
-271 24 0
-271 -27 0
-291 -8 290 0
-290 -5 289 0
-289 283 288 0
-283 1 0
-283 282 0
-282 -5 281 0
-281 277 280 0
-277 1 0
-277 -5 0
-280 278 279 0
-278 14 0
-278 -17 0
-279 24 0
-279 -27 0
-288 285 287 0
-285 14 0
-285 284 0
-284 -17 -5 0
-287 24 0
-287 286 0
-286 -27 -17 0
-322 24 0
-322 321 0
-321 296 0
-321 320 0
-296 -29 295 0
-295 -27 294 0
-294 -17 -5 0
-320 304 0
-320 319 0
-304 -19 303 0
-303 -17 302 0
-302 -5 301 0
-301 297 300 0
-297 1 0
-297 -5 0
-300 298 299 0
-298 14 0
-298 -17 0
-299 24 0
-299 -27 0
-319 -8 318 0
-318 -5 317 0
-317 311 316 0
-311 1 0
-311 310 0
-310 -5 309 0
-309 305 308 0
-305 1 0
-305 -5 0
-308 306 307 0
-306 14 0
-306 -17 0
-307 24 0
-307 -27 0
-316 313 315 0
-313 14 0
-313 312 0
-312 -17 -5 0
-315 24 0
-315 314 0
-314 -27 -17 0
-367 328 366 0
-328 25 0
-328 19 0
-366 329 365 0
-329 15 0
-329 8 0
-365 335 364 0
-335 2 0
-335 334 0
-334 330 333 0
-330 1 0
-330 8 0
-333 331 332 0
-331 14 0
-331 19 0
-332 24 0
-332 29 0
-364 342 363 0
-342 1 0
-342 341 0
-341 2 0
-341 340 0
-340 336 339 0
-336 1 0
-336 8 0
-339 337 338 0
-337 14 0
-337 19 0
-338 24 0
-338 29 0
-363 351 362 0
-351 14 0
-351 350 0
-350 343 349 0
-343 15 0
-343 8 0
-349 2 0
-349 348 0
-348 344 347 0
-344 1 0
-344 8 0
-347 345 346 0
-345 14 0
-345 19 0
-346 24 0
-346 29 0
-362 24 0
-362 361 0
-361 352 360 0
-352 25 0
-352 19 0
-360 353 359 0
-353 15 0
-353 8 0
-359 2 0
-359 358 0
-358 354 357 0
-354 1 0
-354 8 0
-357 355 356 0
-355 14 0
-355 19 0
-356 24 0
-356 29 0
