lib/ltl-model-counter/case-studies/minepump/minepump-k3.sat
(((((l2)->(((m2)=(m3))&(((hw2)=(hw3))&((po2)=(po3)))))&(((l1)->(((m1)=(m3))&(((hw1)=(hw3))&((po1)=(po3)))))&((l0)->(((m0)=(m3))&(((hw0)=(hw3))&((po0)=(po3)))))))&((l2)|((l1)|(l0))))&((((l1)|(l0))->(!l2))&((l0)->(!l1))))&(((((po0)->((!hw0)|((!hw1)|(!hw2))))&(((po1)->((!hw1)|((!hw2)|(((l2)&(!hw2))|(((l1)&(!hw1))|((l0)&(!hw0)))))))&(((po2)->((!hw2)|(((l2)&((!hw2)|(((l2)&(!hw2))|(((l1)&(!hw1))|((l0)&(!hw0))))))|(((l1)&((!hw1)|(!hw2)))|((l0)&((!hw0)|(!hw1)))))))&(((l2)&((po2)->((!hw2)|(((l2)&((!hw2)|(((l2)&(!hw2))|(((l1)&(!hw1))|((l0)&(!hw0))))))|(((l1)&((!hw1)|(!hw2)))|((l0)&((!hw0)|(!hw1))))))))|(((l1)&(((po1)->((!hw1)|((!hw2)|(((l2)&(!hw2))|(((l1)&(!hw1))|((l0)&(!hw0)))))))&((po2)->((!hw2)|(((l2)&((!hw2)|(((l2)&(!hw2))|(((l1)&(!hw1))|((l0)&(!hw0))))))|(((l1)&((!hw1)|(!hw2)))|((l0)&((!hw0)|(!hw1)))))))))|((l0)&(((po0)->((!hw0)|((!hw1)|(!hw2))))&(((po1)->((!hw1)|((!hw2)|(((l2)&(!hw2))|(((l1)&(!hw1))|((l0)&(!hw0)))))))&((po2)->((!hw2)|(((l2)&((!hw2)|(((l2)&(!hw2))|(((l1)&(!hw1))|((l0)&(!hw0))))))|(((l1)&((!hw1)|(!hw2)))|((l0)&((!hw0)|(!hw1)))))))))))))))&((((m0)&(po1))|(((m1)&(po2))|(((m2)&(((l2)&(po2))|(((l1)&(po1))|((l0)&(po0)))))|(((l2)&((m2)&(((l2)&(po2))|(((l1)&(po1))|((l0)&(po0))))))|(((l1)&(((m1)&(po2))|((m2)&(((l2)&(po2))|(((l1)&(po1))|((l0)&(po0)))))))|((l0)&(((m0)&(po1))|(((m1)&(po2))|((m2)&(((l2)&(po2))|(((l1)&(po1))|((l0)&(po0)))))))))))))|(((hw0)&(!po1))|(((hw1)&(!po2))|(((hw2)&(((l2)&(!po2))|(((l1)&(!po1))|((l0)&(!po0)))))|(((l2)&((hw2)&(((l2)&(!po2))|(((l1)&(!po1))|((l0)&(!po0))))))|(((l1)&(((hw1)&(!po2))|((hw2)&(((l2)&(!po2))|(((l1)&(!po1))|((l0)&(!po0)))))))|((l0)&(((hw0)&(!po1))|(((hw1)&(!po2))|((hw2)&(((l2)&(!po2))|(((l1)&(!po1))|((l0)&(!po0)))))))))))))))&((((po0)->((!hw0)|((!hw1)|(!hw2))))&(((po1)->((!hw1)|((!hw2)|(((l2)&(!hw2))|(((l1)&(!hw1))|((l0)&(!hw0)))))))&(((po2)->((!hw2)|(((l2)&((!hw2)|(((l2)&(!hw2))|(((l1)&(!hw1))|((l0)&(!hw0))))))|(((l1)&((!hw1)|(!hw2)))|((l0)&((!hw0)|(!hw1)))))))&(((l2)&((po2)->((!hw2)|(((l2)&((!hw2)|(((l2)&(!hw2))|(((l1)&(!hw1))|((l0)&(!hw0))))))|(((l1)&((!hw1)|(!hw2)))|((l0)&((!hw0)|(!hw1))))))))|(((l1)&(((po1)->((!hw1)|((!hw2)|(((l2)&(!hw2))|(((l1)&(!hw1))|((l0)&(!hw0)))))))&((po2)->((!hw2)|(((l2)&((!hw2)|(((l2)&(!hw2))|(((l1)&(!hw1))|((l0)&(!hw0))))))|(((l1)&((!hw1)|(!hw2)))|((l0)&((!hw0)|(!hw1)))))))))|((l0)&(((po0)->((!hw0)|((!hw1)|(!hw2))))&(((po1)->((!hw1)|((!hw2)|(((l2)&(!hw2))|(((l1)&(!hw1))|((l0)&(!hw0)))))))&((po2)->((!hw2)|(((l2)&((!hw2)|(((l2)&(!hw2))|(((l1)&(!hw1))|((l0)&(!hw0))))))|(((l1)&((!hw1)|(!hw2)))|((l0)&((!hw0)|(!hw1)))))))))))))))&(((m0)&(po1))|(((m1)&(po2))|(((m2)&(((l2)&(po2))|(((l1)&(po1))|((l0)&(po0)))))|(((l2)&((m2)&(((l2)&(po2))|(((l1)&(po1))|((l0)&(po0))))))|(((l1)&(((m1)&(po2))|((m2)&(((l2)&(po2))|(((l1)&(po1))|((l0)&(po0)))))))|((l0)&(((m0)&(po1))|(((m1)&(po2))|((m2)&(((l2)&(po2))|(((l1)&(po1))|((l0)&(po0)))))))))))))))